
******************************************************************************
This program contains Ipopt, a library for large-scale nonlinear optimization.
 Ipopt is released as open source code under the Eclipse Public License (EPL).
         For more information visit https://github.com/coin-or/Ipopt
******************************************************************************

This is Ipopt version 3.14.19, running with linear solver MUMPS 5.8.1.

Number of nonzeros in equality constraint Jacobian...:     4389
Number of nonzeros in inequality constraint Jacobian.:        0
Number of nonzeros in Lagrangian Hessian.............:     1050

Total number of variables............................:     1287
                     variables with only lower bounds:        0
                variables with lower and upper bounds:      457
                     variables with only upper bounds:        0
Total number of equality constraints.................:     1274
Total number of inequality constraints...............:        0
        inequality constraints with only lower bounds:        0
   inequality constraints with lower and upper bounds:        0
        inequality constraints with only upper bounds:        0

iter    objective    inf_pr   inf_du lg(mu)  ||d||  lg(rg) alpha_du alpha_pr  ls
   0  9.8431924e+00 9.90e+01 4.36e-04  -1.0 0.00e+00    -  0.00e+00 0.00e+00   0
   1  9.8481520e+00 1.64e+00 7.98e+01  -1.0 9.87e+01    -  1.23e-02 1.00e+00h  1
   2  9.8482282e+00 4.84e-03 9.28e-02  -1.0 1.20e+00    -  9.89e-01 1.00e+00h  1
   3  9.8676586e+00 3.00e-02 1.57e+01  -1.0 5.04e+00    -  2.71e-01 9.89e-01f  1
   4  9.8691850e+00 3.05e-02 1.32e-03  -1.0 1.26e+00    -  1.00e+00 1.00e+00f  1
   5  9.8577192e+00 5.28e-01 2.35e-03  -1.7 9.48e-01    -  1.00e+00 1.00e+00h  1
   6  9.8580636e+00 4.53e-02 6.72e-05  -1.7 7.00e-01    -  1.00e+00 1.00e+00h  1
   7  9.8569456e+00 8.95e-02 1.56e-04  -2.5 6.40e-01    -  1.00e+00 1.00e+00h  1
   8  9.8525014e+00 3.88e-04 6.14e-04  -2.5 1.21e+00    -  1.00e+00 1.00e+00h  1
   9  9.8486423e+00 4.92e-04 1.75e-01  -3.8 1.14e+00    -  7.33e-01 1.00e+00h  1
iter    objective    inf_pr   inf_du lg(mu)  ||d||  lg(rg) alpha_du alpha_pr  ls
  10  9.8425031e+00 1.28e-03 1.30e-03  -3.8 1.86e+00    -  1.00e+00 1.00e+00h  1
  11  9.8391602e+00 3.25e-04 1.62e-03  -5.7 1.08e+00    -  8.26e-01 1.00e+00h  1
  12  9.8389702e+00 1.56e-06 1.35e-06  -5.7 7.63e-02    -  1.00e+00 1.00e+00h  1
  13  9.8389439e+00 1.80e-08 2.51e-08  -8.6 8.49e-03    -  1.00e+00 1.00e+00h  1
  14  9.8389439e+00 3.73e-14 2.20e-14  -8.6 8.09e-06    -  1.00e+00 1.00e+00h  1

Number of Iterations....: 14

                                   (scaled)                 (unscaled)
Objective...............:   9.8389439134047851e+00    9.8389439134047851e+00
Dual infeasibility......:   2.1982415887578100e-14    2.1982415887578100e-14
Constraint violation....:   3.7303493634139248e-14    3.7303493634139248e-14
Variable bound violation:   0.0000000000000000e+00    0.0000000000000000e+00
Complementarity.........:   2.5076923320962286e-09    2.5076923320962286e-09
Overall NLP error.......:   2.5076923320962286e-09    2.5076923320962286e-09


Number of objective function evaluations             = 15
Number of objective gradient evaluations             = 15
Number of equality constraint evaluations            = 15
Number of inequality constraint evaluations          = 0
Number of equality constraint Jacobian evaluations   = 15
Number of inequality constraint Jacobian evaluations = 0
Number of Lagrangian Hessian evaluations             = 14
Total seconds in IPOPT                               = 0.092

EXIT: Optimal Solution Found.
